unsat
(define-fun inv ((x Int) (n Int)) Bool (let ((_let_1 (* 0 x))) (and (<= (+ _let_1 _let_1) 0) (<= (+ (* 1 x) (* (- 1) n)) 0))))
0.18user 0.00system 0:00.19elapsed 99%CPU (0avgtext+0avgdata 29432maxresident)k
0inputs+8outputs (0major+2007minor)pagefaults 0swaps
